926523
31 25 7859
25 23 11530
23 38 7449
38 29 745
29 36 16895
36 6 22446
6 9 47658
9 17 102410
17 14 42391
14 3 30026
3 16 71701
16 15 36816
15 8 26227
8 11 17581
11 35 5412
35 10 6355
10 1 6947
1 7 18909
7 21 17005
21 2 11546
2 27 15288
27 18 12606
18 40 18404
40 19 13572
19 4 26533
4 22 23621
22 24 45980
24 5 63665
5 32 3290
32 26 29397
26 33 15458
33 12 3967
12 34 39715
34 39 31546
39 37 6534
37 30 941
30 20 17244
20 13 31692
13 28 6411
28 31 12751
